p tw 20 115
0 1
0 2
0 3
0 4
0 9
0 17
0 13
0 14
0 18
1 2
1 10
1 11
1 9
1 5
1 14
1 6
1 7
1 15
1 8
1 4
1 13
1 16
2 12
2 13
2 5
2 9
2 6
2 4
2 17
2 19
2 10
2 14
2 16
2 11
2 15
2 3
3 4
3 12
3 14
3 18
3 6
3 16
3 10
3 13
3 15
3 5
3 11
3 9
4 12
4 18
4 8
4 10
4 13
4 16
4 11
4 14
4 9
4 5
4 7
4 15
5 6
5 7
5 8
5 9
5 15
5 14
5 13
5 18
5 11
5 12
6 7
6 16
6 17
6 9
6 18
6 14
7 11
7 14
7 10
7 12
7 13
7 18
7 9
8 9
8 15
8 18
8 14
8 11
9 11
9 17
9 16
9 14
9 15
9 18
9 12
10 11
10 12
10 17
10 13
11 14
11 15
11 12
11 13
12 13
12 14
12 18
12 16
13 14
13 18
14 15
14 16
15 16
16 17
16 19
17 19
